10	36
0	1	54
0	2	90
0	3	46
0	5	81
0	6	64
0	8	56
0	9	89
1	2	35
1	3	92
1	4	63
1	5	27
1	6	34
1	8	26
1	9	73
2	3	64
2	4	72
2	5	60
2	6	37
2	8	93
2	9	71
3	4	92
3	5	70
3	7	80
3	9	20
4	5	55
4	6	72
4	8	52
4	9	72
5	6	31
5	7	28
5	8	95
5	9	18
6	7	11
6	8	24
7	9	40
8	9	65
